!
!   GAMESS Calculation input file
!   
!
 $CONTRL SCFTYP=RHF MAXIT=200 RUNTYP=OPTIMIZE
         COORD=UNIQUE MULT=1 
         ICHARG=0  
         MOLPLT=.FALSE. PLTORB=.FALSE.  $END
 $SYSTEM TIMLIM=2879 MWORDS=250  $END

 $STATPT OPTTOL=0.0005 NSTEP=999 $END
 $STATPT IHREP=0  $END

 $BASIS  GBASIS=PM6 $END

 $SCF    DIRSCF=.T. $END
 $GUESS  GUESS=HUCKEL  $END

 $DATA
   
  C1
C     6.0     1.17416    -0.79285     0.14823
C     6.0     1.28722     0.69652    -0.01063
C     6.0    -0.04939     1.46479    -0.02511
C     6.0    -1.28171     0.61085    -0.11204
C     6.0    -1.23847    -0.72497    -0.08194
C     6.0     0.00457    -1.43591     0.08281
H     1.0     2.09154    -1.35536     0.29760
H     1.0     1.81952     0.89048    -0.94470
H     1.0     1.92176     1.09632     0.78425
H     1.0    -0.04718     2.17076    -0.86445
H     1.0    -0.11958     2.07462     0.87717
H     1.0    -2.24021     1.11651    -0.19197
H     1.0    -2.15226    -1.31206    -0.14321
H     1.0    -0.03973    -2.51919     0.16941
 $END


! Customizations after this line are persisted when using Do More Calculations
